0 13 117 95 97 87 172 42 142 192 14 43 15 57 144 137 0 0 152 58 2 178 115 145 41 22 133 74 171 73 40 0 0 53 21 72 75 23 186 56 197 198 180 105 0 0 149 179 25 170 67 39 187 139 4 155 110 0 0 154 138 109 177 163 134 55 165 130 54 195 26 0 0 28 184 196 116 77 169 121 29 24 68 80 150 12 0 0 111 157 33 185 81 164 34 78 129 79 3 158 76 0 0 50 102 120 135 35 136 65 71 161 9 51 0 0 132 69 101 30 160 128 20 188 66 103 122 1 176 0 0 27 162 70 131 32 181 90 108 10 189 167 0 0 127 190 31 159 126 63 64 11 62 148 88 0 0 146 182 123 19 107 175 49 143 168 7 194 106 52 0 0 18 199 114 8 174 46 36 47 124 48 82 153 0 0 89 166 83 125 45 17 173 84 5 118 60 147 0 0 156 6 61 113 86 16 93 99 104 96 183 0 0 112 59 98 193 91 191 44 141 85 0 